2	25
694	335	863	8	673	706	237	762	987	586	169	208	519	161	845	577	655	418	865	998	348	559	162	561	759	
787	399	561	414	149	132	820	469	831	186	703	409	784	593	561	281	105	597	716	38	25	848	931	811	703	
1607	1607	
